
Gurobi 9.0.1 (linux64) logging started Fri May  1 00:32:47 2020

Gurobi Optimizer version 9.0.1 build v9.0.1rc0 (linux64)
Optimize a model with 1264 rows, 842 columns and 4500 nonzeros
Model fingerprint: 0xcc89c8a2
Variable types: 0 continuous, 842 integer (810 binary)
Coefficient statistics:
  Matrix range     [1e+00, 8e+00]
  Objective range  [2e+00, 1e+02]
  Bounds range     [1e+00, 1e+00]
  RHS range        [1e+00, 9e+00]

User MIP start produced solution with objective 752 (0.00s)
Loaded user MIP start with objective 752

Presolve removed 650 rows and 396 columns
Presolve time: 0.01s
Presolved: 614 rows, 446 columns, 2592 nonzeros
Variable types: 0 continuous, 446 integer (418 binary)

Root relaxation: objective 5.638750e+02, 392 iterations, 0.01 seconds

    Nodes    |    Current Node    |     Objective Bounds      |     Work
 Expl Unexpl |  Obj  Depth IntInf | Incumbent    BestBd   Gap | It/Node Time

     0     0  563.87500    0   33  752.00000  563.87500  25.0%     -    0s
     0     0  593.00000    0   50  752.00000  593.00000  21.1%     -    0s
     0     0  593.00000    0   49  752.00000  593.00000  21.1%     -    0s
     0     0  593.00000    0   62  752.00000  593.00000  21.1%     -    0s
     0     0  593.00000    0   62  752.00000  593.00000  21.1%     -    0s
     0     0  593.00000    0   45  752.00000  593.00000  21.1%     -    0s
     0     0  593.00000    0   46  752.00000  593.00000  21.1%     -    0s
     0     0  594.37500    0   32  752.00000  594.37500  21.0%     -    0s
     0     0  594.37500    0   85  752.00000  594.37500  21.0%     -    0s
     0     0  597.33333    0   74  752.00000  597.33333  20.6%     -    0s
     0     0  597.33333    0   73  752.00000  597.33333  20.6%     -    0s
     0     0  599.00000    0   95  752.00000  599.00000  20.3%     -    0s
     0     0  599.00000    0   88  752.00000  599.00000  20.3%     -    0s
     0     0  599.00000    0  100  752.00000  599.00000  20.3%     -    0s
     0     0  599.00000    0  101  752.00000  599.00000  20.3%     -    0s
     0     0  599.00000    0   76  752.00000  599.00000  20.3%     -    0s
     0     0  599.00000    0   92  752.00000  599.00000  20.3%     -    0s
     0     0  599.50000    0   49  752.00000  599.50000  20.3%     -    0s
     0     0  599.50000    0   51  752.00000  599.50000  20.3%     -    0s
     0     0  601.00000    0   69  752.00000  601.00000  20.1%     -    0s
     0     0  601.00000    0   70  752.00000  601.00000  20.1%     -    0s
     0     0  601.00000    0   97  752.00000  601.00000  20.1%     -    0s
     0     0  601.00000    0   91  752.00000  601.00000  20.1%     -    0s
     0     0  601.00000    0   67  752.00000  601.00000  20.1%     -    0s
     0     0  601.00000    0   67  752.00000  601.00000  20.1%     -    0s
     0     2  604.00000    0   60  752.00000  604.00000  19.7%     -    0s
H  135   113                     733.0000000  604.00000  17.6%  28.6    0s
*  253   205              52     671.0000000  604.19643  10.0%  29.8    1s
H  351   278                     669.0000000  604.79688  9.60%  34.8    1s
H  433   307                     667.0000000  605.29630  9.25%  40.3    1s
H  546   340                     640.0000000  605.74171  5.35%  49.5    3s
H  552   326                     636.0000000  605.74171  4.76%  49.8    3s
H  609   322                     634.0000000  605.74171  4.46%  50.1    4s
H  637   294                     628.0000000  605.74171  3.54%  49.3    4s
   782   330 infeasible   30       628.00000  605.74171  3.54%  50.9    5s
  1546   444     cutoff   23       628.00000  605.92445  3.52%  58.9   10s
  2114   602  619.66892   33  134  628.00000  606.75595  3.38%  63.9   15s
  2838   774     cutoff   23       628.00000  608.84730  3.05%  67.5   20s
  3461   879  623.63405   25  177  628.00000  610.27764  2.82%  69.3   25s
  4062   913  616.77392   27   97  628.00000  611.74382  2.59%  72.0   30s
H 4729   826                     626.0000000  613.39286  2.01%  72.2   34s
  4753   823  617.37597   33  174  626.00000  613.47356  2.00%  72.2   35s
  5772   522  620.37389   31  107  626.00000  617.80813  1.31%  69.3   40s

Cutting planes:
  Learned: 7
  Gomory: 12
  Cover: 23
  Implied bound: 158
  MIR: 21
  StrongCG: 1
  Flow cover: 22
  GUB cover: 1
  Inf proof: 10
  Zero half: 27
  RLT: 4
  Relax-and-lift: 1

Explored 6688 nodes (432264 simplex iterations) in 42.11 seconds
Thread count was 1 (of 40 available processors)

Solution count 10: 626 628 634 ... 752

Optimal solution found (tolerance 1.00e-04)
Best objective 6.260000000000e+02, best bound 6.260000000000e+02, gap 0.0000%

User-callback calls 26859, time in user-callback 0.03 sec
